\ LP format - for model browsing. Use MPS format to capture full model detail.
Maximize
  x[0] + x[1] + x[3] + x[2] + 0 w[0,0,1] + 0 w[0,2,1] + 0 w[1,1,1]
   + 0 w[1,3,1] + 0 w[3,1,1] + 0 w[3,3,1] + 0 w[2,0,1] + 0 w[2,2,1]
Subject To
 R0: - 2 x[0] + x[1] + x[3] + y[1] + y[3] >= 0
 R1: x[0] - 2 x[1] + x[2] + y[0] + y[2] >= 0
 R2: x[0] - 2 x[3] + x[2] + y[0] + y[2] >= 0
 R3: x[1] + x[3] - 2 x[2] + y[1] + y[3] >= 0
 R4: x[0] + y[0] <= 1
 R5: x[1] + y[1] <= 1
 R6: x[3] + y[3] <= 1
 R7: x[2] + y[2] <= 1
 R8: y[0] + y[1] + y[3] + y[2] <= 1
 R9: s[0] + s[1] + s[3] + s[2] = 1
 R10: - x[0] - y[0] + s[0] <= 0
 R11: - x[1] - y[1] + s[1] <= 0
 R12: - x[3] - y[3] + s[3] <= 0
 R13: - x[2] - y[2] + s[2] <= 0
 R14: x[0] + y[0] - w[0,1,1] + s[1] <= 1
 R15: x[0] + y[0] - w[0,3,1] + s[3] <= 1
 R16: x[0] + y[0] + s[2] <= 1
 R17: x[1] + y[1] - w[1,0,1] + s[0] <= 1
 R18: x[1] + y[1] + s[3] <= 1
 R19: x[1] + y[1] - w[1,2,1] + s[2] <= 1
 R20: x[3] + y[3] - w[3,0,1] + s[0] <= 1
 R21: x[3] + y[3] + s[1] <= 1
 R22: x[3] + y[3] - w[3,2,1] + s[2] <= 1
 R23: x[2] + y[2] + s[0] <= 1
 R24: x[2] + y[2] - w[2,1,1] + s[1] <= 1
 R25: x[2] + y[2] - w[2,3,1] + s[3] <= 1
Bounds
 w[0,0,1] = 0
 w[0,2,1] = 0
 w[1,1,1] = 0
 w[1,3,1] = 0
 w[3,1,1] = 0
 w[3,3,1] = 0
 w[2,0,1] = 0
 w[2,2,1] = 0
Binaries
 x[0] x[1] x[3] x[2] y[0] y[1] y[3] y[2] w[0,0,1] w[0,1,1] w[0,3,1]
 w[0,2,1] w[1,0,1] w[1,1,1] w[1,3,1] w[1,2,1] w[3,0,1] w[3,1,1] w[3,3,1]
 w[3,2,1] w[2,0,1] w[2,1,1] w[2,3,1] w[2,2,1] s[0] s[1] s[3] s[2]
End
